c description: Random 3-CNF over 16 variables and 80 clauses
p cnf 16 80
-8 -11 14 0
8 -10 -11 0
-3 6 -8 0
-2 10 -11 0
-5 -10 12 0
2 6 -13 0
-2 -7 14 0
2 6 -8 0
1 4 -5 0
-1 5 -14 0
-1 -2 7 0
4 7 -16 0
-7 10 -16 0
-2 -5 13 0
-1 6 16 0
-3 -5 -10 0
2 -4 8 0
8 15 16 0
8 10 -14 0
2 -11 -16 0
4 -6 16 0
-1 -2 -4 0
-4 -6 -9 0
4 -8 10 0
5 -6 10 0
-1 5 -11 0
-11 -14 15 0
8 -13 -15 0
-4 -7 14 0
-5 10 14 0
6 -15 -16 0
7 -9 10 0
-1 -3 11 0
4 -11 16 0
-1 3 -8 0
-4 6 -9 0
8 -10 15 0
6 -7 -14 0
2 11 -13 0
-4 14 16 0
2 -5 -11 0
-1 -3 14 0
4 6 14 0
9 -10 -12 0
-2 -9 14 0
-9 -14 15 0
-4 9 -12 0
-5 -9 -15 0
-12 13 -14 0
-3 -6 15 0
2 -6 16 0
4 9 10 0
2 4 14 0
-2 4 6 0
-1 3 10 0
1 3 -13 0
2 -7 -13 0
6 -10 15 0
7 -8 -16 0
-1 -10 -13 0
-2 4 15 0
5 -8 -13 0
-1 -8 14 0
6 -11 -13 0
-7 -14 15 0
-2 10 13 0
-9 10 16 0
1 11 16 0
-4 6 -13 0
-4 5 10 0
3 -8 -12 0
6 12 -15 0
2 3 14 0
2 10 -14 0
4 -8 15 0
4 -9 15 0
7 8 14 0
-5 -8 -14 0
-6 8 -9 0
3 -4 11 0